CPXPARAM_Read_DataCheck                          1
Found incumbent of value 0.000000 after 0.00 sec. (0.26 ticks)
Tried aggregator 1 time.
MIP Presolve modified 1 coefficients.
Reduced MIP has 1031 rows, 10010 columns, and 50030 nonzeros.
Reduced MIP has 10010 binaries, 0 generals, 0 SOSs, and 0 indicators.
Presolve time = 0.03 sec. (19.51 ticks)
Tried aggregator 1 time.
Reduced MIP has 1031 rows, 10010 columns, and 50030 nonzeros.
Reduced MIP has 10010 binaries, 0 generals, 0 SOSs, and 0 indicators.
Presolve time = 0.02 sec. (23.12 ticks)
Probing time = 0.00 sec. (3.25 ticks)
Clique table members: 10472.
MIP emphasis: balance optimality and feasibility.
MIP search method: dynamic search.
Parallel mode: deterministic, using up to 4 threads.
Root relaxation solution time = 0.11 sec. (111.40 ticks)

        Nodes                                         Cuts/
   Node  Left     Objective  IInf  Best Integer    Best Bound    ItCnt     Gap

*     0+    0                            0.0000    61787.0000              --- 
*     0+    0                         8122.0000    61787.0000           660.74%
*     0+    0                         9002.0000    61787.0000           586.37%
      0     0    17719.0600    10     9002.0000    17719.0600     1661   96.83%
*     0+    0                        12943.0000    17719.0600            36.90%
      0     0    15955.1750   414    12943.0000     Cuts: 357     2675   23.27%
*     0+    0                        13214.0000    15955.1750            20.74%
      0     0    14789.8575   806    13214.0000     Cuts: 357     3902   11.93%
      0     0    14197.3041  1257    13214.0000     Cuts: 357     4957    7.44%
      0     0    13901.1596  1623    13214.0000     Cuts: 357     5919    3.36%
      0     0        cutoff          13214.0000    13214.0000     6990    0.00%
Elapsed time = 4.67 sec. (2391.80 ticks, tree = 0.01 MB, solutions = 5)

Clique cuts applied:  1267
Cover cuts applied:  7
Implied bound cuts applied:  1
Mixed integer rounding cuts applied:  46
Zero-half cuts applied:  9

Root node processing (before b&c):
  Real time             =    4.67 sec. (2392.67 ticks)
Parallel b&c, 4 threads:
  Real time             =    0.00 sec. (0.00 ticks)
  Sync time (average)   =    0.00 sec.
  Wait time (average)   =    0.00 sec.
                          ------------
Total (root+branch&cut) =    4.67 sec. (2392.67 ticks)
